========================================================== 
File name: C:\DEGR\assets\definitions\MSRCPSP_Gen\500_40_512_10_C.def
Creation date: Sat May 06 09:17:02 CEST 2023
Website: http://imopse.ii.pwr.edu.pl/ 
Reference: 
Myszkowski P. B., Skowronski M. E., Olech L., Oslizlo K., 
Hybrid Ant Colony Optimization in solving Multi-Skill Resource-Constrained Project Scheduling Problem, 
Soft Computing, DOI: DOI 10.1007/s00500-014-1455-x 
========================================================== 
General characteristics: 
Tasks: 500
Resources: 40
Precedence relations: 509
Number of skill types: 10
========================================================== 
ResourceID 	 Salary 	 Skills 
1	 	 	28.9	 	 Q3: 3 	  Q5: 3 	  Q8: 3 	  Q4: 1 	  Q9: 3 	  Q0: 2 	  Q7: 0 	  Q1: 3 	 
2	 	 	36.1	 	 Q3: 1 	  Q0: 0 	 
3	 	 	70.9	 	 Q9: 3 	  Q4: 3 	  Q2: 3 	  Q6: 2 	  Q3: 2 	  Q5: 3 	  Q1: 1 	 
4	 	 	88.2	 	 Q9: 0 	  Q4: 3 	  Q2: 2 	  Q0: 0 	  Q3: 2 	  Q6: 1 	  Q5: 3 	 
5	 	 	78.3	 	 Q0: 1 	  Q7: 1 	  Q5: 2 	 
6	 	 	52.6	 	 Q4: 1 	  Q1: 3 	 
7	 	 	21.5	 	 Q1: 0 	  Q3: 2 	  Q2: 3 	  Q8: 2 	  Q7: 0 	  Q9: 2 	  Q5: 1 	  Q0: 1 	  Q6: 1 	 
8	 	 	47.4	 	 Q1: 1 	  Q2: 2 	  Q3: 2 	  Q8: 0 	 
9	 	 	65.6	 	 Q8: 2 	 
10	 	 	80.7	 	 Q7: 2 	  Q6: 1 	  Q2: 3 	  Q9: 2 	  Q5: 0 	  Q1: 3 	  Q4: 2 	 
11	 	 	70.6	 	 Q6: 0 	  Q5: 3 	  Q7: 2 	  Q3: 3 	  Q9: 1 	 
12	 	 	60.8	 	 Q8: 2 	  Q9: 2 	 
13	 	 	84.8	 	 Q1: 3 	 
14	 	 	26.0	 	 Q1: 0 	  Q9: 0 	  Q2: 3 	  Q0: 0 	  Q4: 2 	  Q3: 1 	  Q6: 3 	  Q8: 1 	  Q5: 3 	 
15	 	 	90.2	 	 Q9: 2 	 
16	 	 	15.0	 	 Q0: 0 	  Q7: 1 	  Q2: 0 	  Q5: 0 	  Q6: 1 	  Q3: 1 	  Q1: 3 	  Q4: 0 	  Q8: 2 	 
17	 	 	48.5	 	 Q3: 1 	  Q6: 2 	  Q0: 2 	  Q7: 0 	  Q8: 3 	  Q4: 0 	  Q2: 1 	  Q9: 2 	  Q1: 0 	 
18	 	 	41.5	 	 Q6: 3 	  Q0: 2 	 
19	 	 	31.3	 	 Q9: 0 	  Q6: 0 	  Q7: 3 	  Q0: 1 	  Q8: 2 	  Q3: 2 	  Q1: 3 	  Q4: 2 	  Q2: 0 	 
20	 	 	98.8	 	 Q9: 1 	  Q4: 3 	  Q8: 1 	  Q5: 3 	 
21	 	 	65.3	 	 Q7: 1 	 
22	 	 	67.0	 	 Q7: 3 	  Q3: 3 	  Q6: 1 	  Q9: 3 	  Q8: 1 	  Q5: 2 	 
23	 	 	17.1	 	 Q7: 0 	  Q4: 1 	  Q8: 2 	  Q1: 2 	  Q5: 3 	  Q3: 0 	  Q2: 2 	  Q9: 1 	  Q0: 2 	 
24	 	 	97.5	 	 Q6: 3 	  Q5: 2 	  Q2: 3 	  Q9: 1 	 
25	 	 	24.0	 	 Q6: 2 	  Q9: 0 	  Q8: 1 	 
26	 	 	71.0	 	 Q7: 1 	  Q0: 1 	  Q2: 2 	 
27	 	 	55.9	 	 Q0: 0 	 
28	 	 	46.7	 	 Q6: 1 	  Q3: 0 	  Q0: 0 	  Q4: 1 	  Q1: 1 	  Q5: 3 	  Q7: 3 	  Q2: 0 	  Q9: 0 	 
29	 	 	27.4	 	 Q4: 0 	  Q0: 0 	  Q5: 3 	 
30	 	 	94.6	 	 Q0: 0 	  Q2: 1 	  Q8: 3 	 
31	 	 	92.5	 	 Q6: 2 	  Q4: 2 	  Q1: 2 	 
32	 	 	99.5	 	 Q1: 0 	  Q6: 1 	  Q0: 0 	  Q9: 3 	  Q4: 1 	  Q7: 3 	  Q5: 0 	  Q2: 1 	 
33	 	 	61.8	 	 Q1: 2 	  Q7: 0 	  Q2: 1 	  Q5: 1 	 
34	 	 	32.4	 	 Q6: 1 	  Q8: 1 	  Q5: 3 	  Q4: 0 	  Q0: 0 	  Q1: 3 	  Q9: 3 	  Q7: 0 	  Q2: 2 	 
35	 	 	12.9	 	 Q2: 0 	  Q5: 2 	 
36	 	 	20.5	 	 Q5: 1 	  Q0: 3 	  Q9: 1 	  Q6: 2 	  Q8: 2 	  Q1: 0 	 
37	 	 	75.1	 	 Q5: 2 	  Q2: 2 	  Q0: 2 	  Q8: 0 	  Q9: 1 	  Q6: 2 	  Q4: 3 	  Q3: 1 	 
38	 	 	95.8	 	 Q7: 2 	  Q4: 3 	  Q6: 1 	  Q2: 0 	  Q0: 3 	  Q5: 1 	  Q8: 2 	  Q3: 1 	  Q9: 1 	 
39	 	 	83.3	 	 Q9: 1 	  Q5: 2 	  Q8: 1 	  Q2: 3 	  Q0: 0 	  Q7: 3 	  Q1: 1 	  Q3: 0 	  Q6: 0 	 
40	 	 	10.0	 	 Q0: 2 	 
========================================================== 
TaskID 	 Duration 	 Skill 	 Predecessor IDs 
1	11	Q4:	0
2	26	Q8:	2
3	12	Q5:	3
4	18	Q2:	2
5	28	Q6:	0
6	12	Q4:	0
7	10	Q8:	1
8	38	Q9:	2
9	32	Q7:	1
10	32	Q8:	1
11	33	Q9:	2
12	35	Q0:	3
13	14	Q0:	1
14	38	Q8:	3
15	37	Q9:	1
16	40	Q5:	3
17	26	Q5:	2
18	23	Q7:	1
19	27	Q2:	1
20	35	Q8:	0
21	38	Q9:	1
22	18	Q7:	3
23	28	Q9:	2
24	25	Q0:	0
25	23	Q3:	3
26	16	Q1:	1
27	32	Q0:	0
28	19	Q8:	3
29	19	Q7:	2
30	16	Q4:	3
31	14	Q6:	0
32	11	Q5:	3
33	10	Q0:	2
34	21	Q8:	0	21
35	31	Q3:	0
36	17	Q5:	0
37	20	Q8:	0
38	34	Q2:	2
39	26	Q5:	2
40	22	Q3:	3
41	22	Q2:	0
42	30	Q4:	0
43	28	Q1:	1
44	39	Q4:	2
45	30	Q1:	2
46	39	Q2:	1	27
47	30	Q8:	0	1
48	37	Q0:	3
49	16	Q1:	1	44
50	33	Q3:	0
51	34	Q1:	3	12
52	15	Q8:	0	17
53	13	Q2:	3
54	37	Q1:	2
55	28	Q4:	3
56	38	Q5:	0
57	30	Q3:	0
58	24	Q0:	0
59	20	Q8:	1	9
60	19	Q6:	1
61	36	Q4:	2
62	12	Q1:	0
63	31	Q9:	2
64	27	Q7:	2
65	19	Q7:	1	36
66	32	Q4:	1
67	31	Q0:	3	45
68	34	Q1:	2
69	27	Q2:	2
70	10	Q1:	0
71	27	Q8:	2	34
72	20	Q6:	3
73	19	Q0:	2
74	19	Q6:	2
75	14	Q0:	3
76	26	Q6:	3
77	9	Q6:	2
78	24	Q4:	0
79	33	Q0:	2	72	49
80	38	Q7:	2
81	19	Q7:	3
82	25	Q2:	3
83	26	Q6:	3
84	33	Q7:	1
85	10	Q0:	2	72
86	19	Q3:	3
87	18	Q1:	3
88	15	Q9:	3	16
89	29	Q3:	3
90	36	Q2:	0	7	54
91	30	Q2:	2
92	37	Q8:	2	29	28
93	23	Q4:	3
94	37	Q6:	1
95	35	Q1:	2
96	14	Q6:	1	85
97	15	Q7:	0
98	32	Q8:	3
99	33	Q6:	1
100	12	Q0:	2
101	19	Q0:	0
102	37	Q7:	1	23
103	21	Q8:	2	61
104	28	Q2:	1	62	66
105	9	Q9:	0	85
106	27	Q7:	1
107	12	Q9:	2	4
108	28	Q3:	3	97
109	19	Q7:	0
110	18	Q6:	3
111	34	Q1:	0	14
112	38	Q3:	3
113	10	Q3:	0
114	21	Q3:	0
115	9	Q5:	1
116	22	Q0:	0	109
117	20	Q0:	3	103
118	14	Q7:	1
119	22	Q6:	1
120	21	Q6:	2
121	22	Q1:	1
122	35	Q2:	2	51
123	23	Q0:	2	1
124	20	Q4:	0
125	23	Q4:	2	94
126	13	Q1:	0
127	22	Q0:	1
128	15	Q9:	1	55
129	14	Q6:	0	60
130	14	Q7:	0
131	27	Q1:	3	12
132	31	Q1:	1
133	13	Q4:	0	127
134	34	Q2:	3
135	20	Q3:	1	84
136	21	Q7:	3
137	33	Q6:	3
138	15	Q6:	3
139	20	Q8:	3	46	7
140	28	Q5:	2	51
141	11	Q1:	0	41
142	27	Q8:	0
143	22	Q4:	1
144	8	Q4:	2
145	14	Q9:	0
146	14	Q6:	1	134	25
147	23	Q5:	1	23
148	9	Q6:	2	14
149	12	Q5:	1	34
150	23	Q5:	0	123
151	40	Q3:	2
152	26	Q4:	3	120
153	30	Q2:	2	23
154	31	Q2:	1	134
155	34	Q6:	2	78	27
156	37	Q2:	0	57
157	36	Q0:	3
158	40	Q6:	3	127
159	29	Q4:	0
160	30	Q3:	3
161	35	Q2:	3
162	11	Q7:	1	2
163	37	Q0:	0	4
164	16	Q0:	0
165	32	Q6:	1
166	19	Q0:	0
167	17	Q4:	3	65
168	15	Q6:	1	16	83
169	17	Q9:	0
170	23	Q0:	3	102
171	9	Q6:	1
172	33	Q2:	3	42	75
173	33	Q7:	2	170	86
174	12	Q5:	3	80
175	37	Q8:	2	74
176	9	Q8:	1	159
177	11	Q5:	2	83
178	29	Q1:	3	22	50	16	83
179	40	Q8:	2	5	61
180	14	Q0:	3
181	24	Q7:	0
182	23	Q7:	2
183	32	Q5:	1	139
184	39	Q4:	0	117
185	21	Q9:	2	23
186	15	Q9:	3	110
187	38	Q4:	2
188	37	Q8:	0	122
189	14	Q7:	0
190	29	Q3:	2
191	26	Q0:	1	114
192	10	Q3:	2	58
193	36	Q5:	0
194	33	Q4:	0
195	21	Q8:	0	17	11
196	22	Q7:	2	56
197	11	Q6:	3
198	36	Q2:	0	186	29
199	40	Q6:	0	136
200	12	Q4:	0
201	30	Q8:	3	177
202	21	Q6:	1
203	29	Q1:	3	88	147
204	29	Q4:	0
205	9	Q2:	2
206	24	Q1:	1	181
207	35	Q0:	3
208	25	Q0:	1
209	36	Q1:	0
210	32	Q6:	2	131
211	10	Q0:	2	110	108	57
212	26	Q4:	3	128
213	10	Q0:	0	153
214	22	Q8:	3	47
215	39	Q8:	0	196
216	22	Q5:	0
217	15	Q0:	1
218	40	Q9:	0	120	184
219	33	Q3:	1
220	32	Q7:	3
221	34	Q0:	0	35
222	25	Q0:	1	110
223	40	Q0:	3
224	15	Q9:	0
225	18	Q1:	1	124
226	13	Q6:	1
227	19	Q4:	2
228	19	Q4:	2	54
229	30	Q8:	1
230	27	Q9:	1
231	25	Q4:	3
232	21	Q0:	0	113	120
233	40	Q7:	2	31	177	100	220
234	32	Q4:	2
235	30	Q3:	3	7	49
236	36	Q9:	0	23	60	139
237	10	Q0:	1
238	33	Q5:	0	209
239	13	Q8:	0
240	33	Q2:	1	51
241	28	Q4:	3
242	36	Q5:	3	149
243	37	Q4:	1	86
244	9	Q2:	0
245	14	Q9:	2	145
246	33	Q6:	1	214
247	27	Q5:	3	82
248	10	Q7:	0	9
249	37	Q4:	1
250	27	Q4:	1
251	23	Q5:	1
252	31	Q9:	3
253	22	Q3:	2
254	14	Q1:	2	119
255	34	Q4:	0	28
256	28	Q9:	2	129	160	93	20	231	250
257	9	Q9:	3	251	125
258	40	Q5:	2
259	11	Q6:	2	192
260	36	Q8:	1	253
261	14	Q4:	1
262	32	Q4:	3
263	9	Q2:	1	180	117
264	14	Q8:	0	74
265	27	Q7:	1
266	40	Q9:	2	54	213
267	12	Q2:	0	97
268	19	Q2:	0	97	179
269	16	Q7:	1
270	14	Q2:	3	70	92
271	19	Q3:	2	54	107	226
272	11	Q8:	1	160
273	13	Q4:	3	55
274	23	Q4:	2
275	15	Q2:	0	169	181
276	22	Q7:	1	64
277	29	Q4:	0
278	24	Q8:	0
279	23	Q0:	1	4
280	40	Q6:	3	133
281	36	Q0:	1	116	136
282	30	Q8:	1
283	12	Q4:	2	238	267
284	10	Q8:	0	10	25	263
285	31	Q8:	3
286	14	Q6:	1	130	124
287	9	Q3:	2	78
288	35	Q1:	0	191	59
289	23	Q0:	0	82	135
290	35	Q1:	0
291	10	Q8:	0
292	24	Q3:	1	290
293	40	Q6:	3	42	79	39
294	14	Q5:	0	255
295	18	Q2:	1	80	73
296	23	Q5:	2
297	40	Q8:	3
298	25	Q0:	3
299	23	Q3:	0	212
300	20	Q7:	1	219
301	34	Q9:	2	55	97	126
302	19	Q4:	3
303	39	Q2:	0	63	141
304	23	Q4:	0	196	147	121
305	33	Q3:	0
306	37	Q0:	3	95
307	20	Q2:	3
308	21	Q8:	0
309	27	Q8:	0	57
310	31	Q1:	0	100	50	182	47	20
311	33	Q7:	2
312	32	Q7:	3	22	220	208
313	19	Q7:	1
314	20	Q7:	1	90
315	40	Q4:	2	206
316	26	Q5:	1	225	215
317	20	Q3:	0
318	16	Q6:	1	94
319	28	Q2:	2	55	5
320	17	Q9:	2	4	76	122
321	29	Q1:	2	64
322	40	Q7:	1
323	33	Q3:	3	170	208	108
324	16	Q6:	0	10	319
325	24	Q7:	3
326	13	Q6:	1	194	105	312
327	27	Q5:	3
328	26	Q0:	1
329	10	Q7:	3	111
330	20	Q0:	1
331	9	Q1:	0	67	286
332	20	Q8:	1
333	12	Q8:	3	39	50	204
334	24	Q2:	2
335	17	Q7:	2	314	193	237
336	20	Q9:	0	221	30	51
337	28	Q0:	0
338	27	Q3:	1	241
339	23	Q4:	2
340	23	Q0:	2	33
341	29	Q4:	2	131
342	32	Q3:	0	14	212
343	13	Q9:	1	284	120
344	24	Q6:	1
345	18	Q0:	3	180	105
346	40	Q2:	1
347	31	Q5:	0	60	188	49	236
348	15	Q9:	1	127
349	15	Q9:	2
350	32	Q0:	2	332	145
351	15	Q2:	2	43	245
352	40	Q7:	3	57	275
353	25	Q0:	3	292	204
354	26	Q2:	3	196	23	351
355	19	Q5:	3	338	263	57	94
356	9	Q8:	2	47	319
357	15	Q4:	2
358	13	Q2:	0	207
359	17	Q5:	3	235	352
360	20	Q3:	1	349	285
361	13	Q7:	3	104	217
362	35	Q6:	0
363	16	Q1:	1	335
364	27	Q2:	3	104	237
365	40	Q2:	2	307	28	214
366	12	Q9:	0	157
367	21	Q4:	1	144	301	19
368	37	Q9:	2	67	159
369	31	Q7:	0
370	20	Q0:	2	293
371	40	Q1:	3	1
372	22	Q9:	0	62	114	227
373	20	Q5:	1
374	40	Q7:	3
375	19	Q2:	1	87	364
376	29	Q1:	2	266	93
377	13	Q0:	3	198
378	37	Q6:	1	368	319	310	342	230	278	208
379	39	Q8:	2	168
380	10	Q0:	1
381	35	Q9:	0	270	199	144
382	22	Q9:	1
383	21	Q2:	3	30	363	206	209	359
384	12	Q7:	1
385	17	Q1:	0	157	192
386	13	Q6:	0	230
387	11	Q4:	1	382	310	370
388	9	Q8:	2	384
389	20	Q4:	3	134	266
390	23	Q4:	2
391	13	Q4:	1	252	108	123	333
392	23	Q8:	1
393	34	Q5:	0	186
394	28	Q9:	2	187	85
395	24	Q6:	0	66
396	15	Q9:	1	177	309
397	13	Q7:	1	375
398	30	Q0:	2
399	22	Q3:	2	148	186	145	90
400	40	Q8:	0	46	308
401	38	Q5:	3	34	93	159	225	238
402	39	Q4:	0	287	391	359	121
403	28	Q8:	3	322
404	11	Q8:	2
405	37	Q0:	1	164	115
406	26	Q4:	1	107
407	35	Q1:	2	65	399
408	9	Q5:	3	357
409	18	Q1:	1
410	30	Q8:	3
411	19	Q4:	1	71	360	79
412	22	Q0:	2
413	15	Q4:	3	221
414	18	Q8:	3	77
415	37	Q3:	0	232	377	91
416	15	Q9:	2	78	194
417	17	Q3:	2	347	13	190
418	23	Q7:	1	237	167
419	23	Q7:	3	46	407	77
420	23	Q7:	2	70	342
421	31	Q0:	1	363	282
422	20	Q6:	0
423	38	Q3:	0
424	33	Q0:	2	366	136	238
425	25	Q6:	2	88	226	378
426	12	Q5:	3	408	391
427	40	Q5:	0
428	28	Q0:	3
429	17	Q3:	3	37	334
430	34	Q6:	1	300	273
431	39	Q0:	2	25	365
432	15	Q6:	2
433	28	Q8:	0
434	9	Q1:	2	42
435	9	Q7:	2
436	36	Q2:	3	391
437	33	Q0:	3	66	268	83
438	31	Q7:	1
439	16	Q8:	2
440	30	Q5:	3	101	270
441	12	Q5:	1
442	28	Q8:	0	338
443	17	Q0:	0	362	184	72	89
444	23	Q0:	3	25
445	29	Q3:	3
446	38	Q9:	3	401
447	20	Q4:	0	68	323
448	37	Q0:	1	50
449	39	Q5:	3
450	19	Q1:	1	178
451	9	Q7:	1	154	406	71
452	29	Q5:	1
453	24	Q7:	0	62
454	11	Q7:	1	154
455	35	Q7:	0
456	14	Q9:	2	315
457	34	Q3:	1	190	187	29
458	37	Q8:	2	200
459	10	Q1:	0	118	308
460	39	Q0:	0	308	369
461	38	Q9:	0	131	437	271	116
462	26	Q4:	0
463	33	Q1:	1	268	188	281
464	21	Q2:	0	425	235	172
465	36	Q4:	2	174
466	13	Q2:	0
467	20	Q6:	1	336	444
468	16	Q3:	2	185	67
469	18	Q6:	3	463	311	417	200
470	36	Q9:	0	83
471	10	Q8:	0	374	257
472	25	Q5:	0	368	458	467
473	9	Q1:	2	212
474	18	Q3:	1	50	160	306
475	24	Q9:	1	10
476	26	Q6:	0	178	177	32	340
477	11	Q4:	3	208	227
478	33	Q6:	2	240
479	9	Q7:	3	17
480	9	Q0:	0	169	107	348	283
481	14	Q2:	1	273	322	121
482	37	Q7:	3	73	363
483	12	Q0:	0	18	298	443
484	15	Q9:	1	57
485	34	Q9:	2	293	410
486	32	Q2:	3	274	219
487	24	Q0:	0	48	460
488	33	Q5:	3	326	43	279	173	333	452
489	23	Q7:	1	312	426
490	26	Q8:	1	170	122	187
491	23	Q7:	1	11	351	68
492	10	Q6:	1	354	44	7	81
493	40	Q1:	0	105	459
494	39	Q0:	3	326	61	351	316	102
495	38	Q3:	1	190	370
496	34	Q4:	2	385	109	392
497	34	Q4:	2	110	489
498	14	Q8:	0	417	433
499	32	Q9:	3	383	284	196
500	36	Q8:	1	432
========================================================== 